Problem:    construccion_nuev_superficies
Rows:       9
Columns:    10 (10 integer, 10 binary)
Non-zeros:  68
Status:     INTEGER OPTIMAL
Objective:  Z = 310 (MAXimum)

   No.   Row name        Activity     Lower bound   Upper bound
------ ------------    ------------- ------------- -------------
     1 Z                         310                             
     2 presupeustoMaximoAnual[1]
                                  29                          30 
     3 presupeustoMaximoAnual[2]
                                  29                          30 
     4 presupeustoMaximoAnual[3]
                                  35                          35 
     5 presupeustoMaximoAnual[4]
                                  28                          28 
     6 presupeustoMaximoAnual[5]
                                  28                          31 
     7 si9entonces2y5
                                   0                          -0 
     8 si4y6entoncesNo10
                                   0                           2 
     9 ambosOninguno1y2
                                   0            -0             = 

   No. Column name       Activity     Lower bound   Upper bound
------ ------------    ------------- ------------- -------------
     1 X[1]         *              1             0             1 
     2 X[2]         *              1             0             1 
     3 X[3]         *              0             0             1 
     4 X[4]         *              0             0             1 
     5 X[5]         *              1             0             1 
     6 X[6]         *              0             0             1 
     7 X[7]         *              1             0             1 
     8 X[8]         *              0             0             1 
     9 X[9]         *              1             0             1 
    10 X[10]        *              0             0             1 

Integer feasibility conditions:

KKT.PE: max.abs.err = 0.00e+00 on row 0
        max.rel.err = 0.00e+00 on row 0
        High quality

KKT.PB: max.abs.err = 0.00e+00 on row 0
        max.rel.err = 0.00e+00 on row 0
        High quality

End of output
